NAME: random-69-17089
TYPE: TSP
COMMENT: size=69 seed=17089
DIMENSION: 140
EDGE_WEIGHT_TYPE: EUC_2D
NODE_COORD_SECTION
+0 823 352
-0 823 352
+1 482 781
-1 875 295
+2 771 217
-2 369 913
+3 388 8
-3 132 123
+4 660 124
-4 616 594
+5 269 849
-5 46 673
+6 220 449
-6 374 164
+7 101 461
-7 901 339
+8 773 46
-8 124 314
+9 414 139
-9 586 848
+10 76 678
-10 174 426
+11 114 731
-11 574 753
+12 246 94
-12 683 156
+13 251 57
-13 519 895
+14 878 464
-14 731 369
+15 285 487
-15 27 339
+16 869 590
-16 397 462
+17 480 817
-17 790 401
+18 970 605
-18 341 854
+19 847 519
-19 414 727
+20 773 492
-20 644 634
+21 474 929
-21 438 744
+22 26 474
-22 437 549
+23 239 661
-23 581 342
+24 550 133
-24 488 410
+25 482 421
-25 43 283
+26 171 319
-26 89 425
+27 115 310
-27 279 370
+28 686 588
-28 849 839
+29 328 666
-29 341 152
+30 702 849
-30 869 599
+31 182 42
-31 588 117
+32 657 996
-32 259 964
+33 155 807
-33 592 694
+34 475 281
-34 721 39
+35 162 37
-35 241 516
+36 283 15
-36 279 940
+37 539 378
-37 445 394
+38 464 180
-38 21 656
+39 966 177
-39 464 433
+40 902 807
-40 513 499
+41 34 390
-41 244 494
+42 997 409
-42 187 368
+43 282 845
-43 658 289
+44 322 875
-44 646 623
+45 734 650
-45 80 84
+46 638 599
-46 533 561
+47 169 363
-47 525 190
+48 195 198
-48 973 873
+49 459 615
-49 402 357
+50 585 255
-50 559 321
+51 679 767
-51 151 160
+52 292 808
-52 32 270
+53 632 600
-53 380 616
+54 11 322
-54 4 703
+55 588 15
-55 256 306
+56 686 386
-56 163 674
+57 214 181
-57 949 617
+58 501 10
-58 530 392
+59 322 901
-59 612 76
+60 112 937
-60 212 786
+61 427 420
-61 933 884
+62 383 255
-62 646 77
+63 807 170
-63 201 275
+64 106 449
-64 230 675
+65 533 808
-65 896 808
+66 449 421
-66 668 237
+67 498 837
-67 876 501
+68 486 584
-68 480 242
+69 747 91
-69 257 163
PRECEDENCE_SECTION
+0 -0
+1 -1
+2 -2
+3 -3
+4 -4
+5 -5
+6 -6
+7 -7
+8 -8
+9 -9
+10 -10
+11 -11
+12 -12
+13 -13
+14 -14
+15 -15
+16 -16
+17 -17
+18 -18
+19 -19
+20 -20
+21 -21
+22 -22
+23 -23
+24 -24
+25 -25
+26 -26
+27 -27
+28 -28
+29 -29
+30 -30
+31 -31
+32 -32
+33 -33
+34 -34
+35 -35
+36 -36
+37 -37
+38 -38
+39 -39
+40 -40
+41 -41
+42 -42
+43 -43
+44 -44
+45 -45
+46 -46
+47 -47
+48 -48
+49 -49
+50 -50
+51 -51
+52 -52
+53 -53
+54 -54
+55 -55
+56 -56
+57 -57
+58 -58
+59 -59
+60 -60
+61 -61
+62 -62
+63 -63
+64 -64
+65 -65
+66 -66
+67 -67
+68 -68
+69 -69
EOF
